##TITLE=3-Hexyn-1-ol
##JCAMP-DX=4.24
##DATA TYPE=INFRARED SPECTRUM
##ORIGIN=NIST Mass Spectrometry Data Center
##OWNER=NIST Standard Reference Data Program
Collection (C) 2018 copyright by the U.S. Secretary of Commerce
on behalf of the United States of America. All rights reserved.
##CAS REGISTRY NO=1002-28-4
##MOLFORM=C 6 H 10 O
##$NIST SOURCE=MSDC-IR
##SPECTROMETER/DATA SYSTEM=HP-GC/MS/IRD
##STATE=gas
##XUNITS=1/CM
##YUNITS=ABSORBANCE
##XFACTOR=1.0
##YFACTOR=0.000001400
##DELTAX=4.0
##FIRSTX=550.0
##LASTX=3846.0
##FIRSTY=0.000447
##MAXX=3846
##MINX=550
##MAXY=0.014
##MINY=0
##NPOINTS=825
##XYDATA=(X++(Y..Y))
550.0 319 311 260 176 160 167 172 170 128 167
590.0 198 155 116 165 178 159 170 162 167 185
630.0 168 125 92 112 92 53 69 69 59 52
670.0 68 74 50 64 87 75 40 8 17 27
710.0 9 6 33 43 38 39 47 43 35 68
750.0 80 88 101 109 118 99 71 103 139 106
790.0 84 101 120 89 106 141 147 173 215 273
830.0 328 397 470 523 538 530 553 547 476 405
870.0 349 312 286 274 283 274 270 301 316 324
910.0 337 338 323 316 311 284 320 359 406 446
950.0 476 529 572 629 682 723 768 816 908 1033
990.0 1160 1328 1496 1662 1870 2142 2517 3017 3710 4704
1030.0 5987 7418 8710 9585 10000 9827 9023 8007 7020 6072
1070.0 5164 4253 3389 2686 2119 1658 1328 1095 901 775
1110.0 709 662 639 626 626 636 648 663 650 644
1150.0 647 662 671 707 767 847 942 1036 1098 1135
1190.0 1176 1190 1156 1094 1070 1039 1000 954 901 857
1230.0 815 767 706 689 674 642 645 657 657 681
1270.0 724 773 832 886 944 1033 1126 1253 1481 1837
1310.0 2355 2934 3371 3599 3656 3454 3020 2542 2143 1827
1350.0 1623 1496 1436 1444 1536 1683 1869 2078 2247 2338
1390.0 2357 2321 2227 2074 1907 1739 1586 1494 1461 1443
1430.0 1447 1473 1465 1410 1330 1274 1231 1189 1139 1095
1470.0 1051 987 898 803 696 620 548 462 407 368
1510.0 318 272 243 209 187 180 162 152 136 109
1550.0 101 107 122 106 96 102 94 88 78 83
1590.0 70 66 68 48 51 46 33 33 44 61
1630.0 57 51 54 51 47 49 47 47 49 37
1670.0 32 36 33 18 20 27 22 24 25 13
1710.0 14 21 19 15 12 15 17 14 10 11
1750.0 11 6 3 13 17 13 13 16 13 7
1790.0 7 7 16 14 9 16 28 23 17 25
1830.0 24 14 18 26 23 20 21 27 42 54
1870.0 50 48 50 62 70 62 66 73 64 60
1910.0 62 49 41 40 30 23 21 12 9 15
1950.0 16 16 14 22 24 20 19 7 1 8
1990.0 10 10 19 23 25 22 21 26 26 29
2030.0 41 50 51 60 70 77 80 78 79 76
2070.0 75 79 74 74 79 80 79 77 81 73
2110.0 62 70 63 52 57 53 40 25 35 34
2150.0 13 18 26 21 19 21 21 20 18 22
2190.0 34 41 32 32 33 33 48 53 45 42
2230.0 44 46 42 42 37 38 35 31 28 23
2270.0 25 31 33 32 30 24 14 20 25 8
2310.0 11 24 30 37 29 29 44 42 47 43
2350.0 40 45 35 39 39 32 22 25 35 29
2390.0 37 45 36 35 36 38 49 49 51 48
2430.0 54 73 80 72 62 56 50 45 43 43
2470.0 37 34 39 38 33 41 53 52 57 61
2510.0 59 68 69 68 79 70 50 51 59 50
2550.0 35 35 34 42 41 38 46 50 62 69
2590.0 69 67 63 61 70 83 87 98 121 138
2630.0 153 156 153 139 119 116 112 107 106 123
2670.0 136 133 121 123 143 154 148 151 168 192
2710.0 201 195 206 228 241 262 283 285 292 311
2750.0 322 328 351 370 369 363 356 361 364 359
2790.0 380 427 465 496 539 582 640 712 787 889
2830.0 1011 1158 1325 1506 1677 1890 2150 2435 2742 3065
2870.0 3421 3847 4349 4899 5310 5502 5612 5644 5642 5742
2910.0 5986 6329 6707 7119 7534 7871 8206 8624 8927 8880
2950.0 8609 8274 7850 7482 7303 7380 7760 7927 7427 6699
2990.0 5876 4693 3557 2817 2329 1976 1673 1419 1193 970
3030.0 801 679 587 518 473 422 374 356 330 302
3070.0 287 272 253 231 209 207 197 185 191 185
3110.0 190 191 188 186 166 146 144 142 144 154
3150.0 153 147 140 124 126 133 114 107 116 106
3190.0 70 58 64 63 55 65 70 47 25 11
3230.0 6 29 45 30 15 19 30 32 28 40
3270.0 42 38 34 29 28 14 42 77 60 36
3310.0 26 26 3 20 37 32 25 22 21 16
3350.0 41 55 57 56 57 40 5 12 29 12
3390.0 3 26 15 13 27 17 22 41 71 72
3430.0 59 68 77 82 67 81 97 82 71 73
3470.0 64 44 36 31 39 58 45 5 8 51
3510.0 62 61 62 71 77 105 150 149 160 182
3550.0 175 162 148 139 138 127 108 124 149 166
3590.0 221 303 413 642 1048 1416 1546 1558 1486 1286
3630.0 1008 754 626 565 570 657 802 930 1008 1094
3670.0 1137 1081 925 773 626 473 368 308 258 204
3710.0 171 162 161 143 116 101 84 67 55 56
3750.0 62 54 57 61 43 19 30 52 55 39
3790.0 16 13 31 44 38 18 0 3 7 6
3830.0 1 13 29 8 16
##END=
